Route #1: 2 27 63 49 65 47
Route #2: 5 30 70 29 37 75
Route #3: 57 7 76 32 73 51 71 22
Route #4: 8 15 12 34 46 45 31
Route #5: 17 72 58 38 56 69 67 43 21
Route #6: 52 24 1 77 23 44 26 11 64 40
Route #7: 42 25 10 18 16 66 60 6
Route #8: 53 68 41 14 36 59 35 55
Route #9: 39 33 4 13 48 74
Route #10: 62 9 19 28 50 61 54 20 3
Cost 1283